
%FILE DATA:	Soccer Computational Problem for MiniZinc Models	%
%AUTHOR:	Jack Wall	%
%CONTACT:  	116397063@umail.ucc.ie			%
%LAST UPDATE:	03/03/2020, 12:08:58						%
%DESCRIPTION: 	40 games played with 16 games left				%


n=8; %number of teams

%Games to play
games=[|4,3|6,7|2,8|5,6|6,5|4,7|7,1|7,8|3,7|5,3|7,2|4,2|1,6|8,2|1,7|1,3|];

%Initial points
iPoints=[12,15,15,14,11,13,10,17];

%POSITION CONSTRAINTS
% [|teamID, operator, position|...]
% operators index:
%  1 for =  operator
%  2 for >  operator
%  3 for >= operator
%  4 for <  operator
%  5 for <= operator
positionConstraints=[|7,5,1|5,5,2|2,3,3|];